c A SAT instance generated from a 3-CNF formula that had 40 clauses and 10 variables
p cnf 10 40
4 7 -9 0
-1 -6 -2 0
2 5 -9 0
6 4 3 0
-7 6 2 0
-8 -1 10 0
-2 6 -5 0
-4 -6 3 0
-8 -3 2 0
5 9 3 0
5 9 3 0
8 -4 9 0
-10 -1 4 0
6 -4 -7 0
-7 8 -3 0
-9 -10 -8 0
8 3 -10 0
3 -8 10 0
10 4 3 0
-4 -5 -3 0
-10 7 -5 0
9 3 1 0
-2 8 10 0
-2 -3 -10 0
7 2 -4 0
1 3 -2 0
5 -4 -1 0
3 9 -10 0
-2 -5 -10 0
-9 -3 -4 0
-4 1 5 0
-3 7 -1 0
7 1 6 0
-8 -10 7 0
7 -6 4 0
3 8 -2 0
3 -9 4 0
-4 7 5 0
-10 -3 -7 0
1 9 8 0
